8581
0 0 1 0 0 0 1 1 1 1 0 1 0 1 1 1 0 0 1 0 
18 18 18 18 18 18 18 2 8 8 8 8 2 8 2 8 2 2 8 6 6 6 2 6 6 2 6 6 6 6 6 14 14 6 6 6 6 6 6 7 7 7 7 7 7 7 7 7 14 7 7 14 7 7 7 7 7 7 7 7 11 11 11 11 11 11 11 7 11 9 9 11 9 11 18 13 9 13 9 9 13 15 15 15 15 15 15 15 15 15 15 18 18 18 18 18 18 18 18 18 
